100 100
55 44 1
2 21 1
73 15 1
89 16 1
5 45 1
11 59 1
29 45 1
14 26 1
55 58 1
74 29 1
28 62 1
4 12 1
26 69 1
48 54 1
60 23 1
83 65 1
74 2 1
21 89 1
47 16 1
6 5 1
88 12 1
16 24 1
44 65 1
61 90 1
91 87 1
87 80 1
40 24 1
71 7 1
37 51 1
25 13 1
58 82 1
92 78 1
15 59 1
50 13 1
53 61 1
11 60 1
49 99 1
20 100 1
14 18 1
53 42 1
92 94 1
22 31 1
63 40 1
71 45 1
35 100 1
78 94 1
55 51 1
55 25 1
100 5 1
45 13 1
80 5 1
27 70 1
41 31 1
12 42 1
61 92 1
43 4 1
49 34 1
100 70 1
51 34 1
92 82 1
45 3 1
65 19 1
41 86 1
95 92 1
84 60 1
95 46 1
52 37 1
9 57 1
56 61 1
14 38 1
40 10 1
22 33 1
83 95 1
77 19 1
94 60 1
57 8 1
20 83 1
72 43 1
37 76 1
68 4 1
56 82 1
22 100 1
23 80 1
46 77 1
14 80 1
83 12 1
41 28 1
11 16 1
49 100 1
42 34 1
15 8 1
21 43 1
50 96 1
24 55 1
98 43 1
63 14 1
39 59 1
82 98 1
81 88 1
59 18 1
100 100 
100 100 
100 100 
100 100 
100 100 
100 100 
100 100 
100 100 
100 100 
100 100 
100 100 
100 100 
100 100 
100 100 
100 100 
100 100 
100 100 
100 100 
100 100 
100 100 
100 100 
100 100 
100 100 
100 100 
100 100 
100 100 
100 100 
100 100 
100 100 
100 100 
100 100 
100 100 
100 100 
100 100 
100 100 
100 100 
100 100 
100 100 
100 100 
100 100 
100 100 
100 100 
100 100 
100 100 
100 100 
100 100 
100 100 
100 100 
100 100 
100 100 
100 100 
100 100 
100 100 
100 100 
100 100 
100 100 
100 100 
100 100 
100 100 
100 100 
100 100 
100 100 
100 100 
100 100 
100 100 
100 100 
100 100 
100 100 
100 100 
100 100 
100 100 
100 100 
100 100 
100 100 
100 100 
100 100 
100 100 
100 100 
100 100 
100 100 
100 100 
100 100 
100 100 
100 100 
100 100 
100 100 
100 100 
100 100 
100 100 
100 100 
100 100 
100 100 
100 100 
100 100 
100 100 
100 100 
100 100 
100 100 
100 100 
100 100 
